examples/con/graph-20-52.param
$ generated by rg.pl with seed 52
letting n be 20
$ 33 edges
letting E be {{10,19},{8,10},{14,20},{1,16},{8,11},{7,10},{4,19},{11,18},{6,7},{6,17},{13,20},{10,14},{9,18},{10,18},{9,17},{2,17},{14,16},{2,7},{1,10},{8,12},{11,16},{1,11},{3,9},{2,20},{17,20},{3,12},{7,8},{3,16},{2,5},{2,16},{9,12},{5,10},{4,15}}
